200
1000
380
378
378
373
370
370
370
369
368
368
367
366
360
357
354
353
351
350
348
347
340
340
339
338
337
335
333
328
328
327
324
323
321
320
316
315
311
311
308
307
300
300
297
297
297
295
294
292
285
280
280
277
277
275
275
272
266
265
264
264
263
262
261
259
257
255
255
249
249
245
244
244
243
243
242
241
241
240
238
238
237
234
228
227
226
226
225
224
224
221
220
218
217
217
217
214
211
209
206
203
203
202
202
201
201
200
197
196
189
188
188
187
186
186
186
185
179
178
177
172
167
165
165
163
161
159
158
158
157
156
155
155
152
149
146
144
140
139
138
130
128
127
125
122
120
117
117
115
113
109
105
103
103
99
99
96
94
93
92
92
91
90
88
82
81
80
76
74
73
67
66
66
66
59
58
57
56
56
55
53
52
51
50
49
48
44
43
40
39
38
35
34
33
29
29
27
26
24
24
22
